; ./seahorn/./sv_comp_flat_small/termination-numeric/c.07_true-termination.c.flat_000.smt2
(set-logic HORN)

(declare-fun |main_1| ( Int Int Int Int Int ) Bool)

(assert
  (forall ( (A Int) (B Int) (C Int) (D Int) (v_4 Int) ) 
    (=>
      (and
        (and true (= 0 v_4))
      )
      (main_1 v_4 A B C D)
    )
  )
)
(assert
  (forall ( (A Int) (B Int) (C Int) (D Bool) (E Bool) (F Bool) (G Int) (H Int) (I Int) (J Int) (K Bool) (L Int) (M Int) (N Int) (O Bool) (P Bool) (Q Bool) (R Bool) (S Int) (T Int) (U Int) (V Int) (W Int) (v_23 Int) (v_24 Int) ) 
    (=>
      (and
        (main_1 v_23 G H I J)
        (and (= 0 v_23)
     (= F (and D E))
     (= E (<= M N))
     (or (= S L) (not O) (not R))
     (or (= C V) (not O) (not R))
     (or (= B U) (not O) (not R))
     (or (= A S) (not O) (not R))
     (or (= W T) (not O) (not R))
     (or (= V 0) (not O) (not R))
     (or (= U N) (not O) (not R))
     (or (= T M) (not O) (not R))
     (or F (not K) (not P))
     (or (not Q) (and O R))
     (or (not O) (and K P))
     (= Q true)
     (not (= (<= 101 L) D))
     (= 1 v_24))
      )
      (main_1 v_24 A B C W)
    )
  )
)
(assert
  (forall ( (A Bool) (B Bool) (C Bool) (D Int) (E Int) (F Int) (G Int) (H Int) (I Bool) (J Int) (K Int) (L Int) (M Bool) (N Bool) (O Int) (P Bool) (Q Bool) (v_17 Int) (v_18 Int) ) 
    (=>
      (and
        (main_1 v_17 E F G H)
        (and (= 0 v_17)
     (= C (and A B))
     (= B (<= K L))
     (or (= D O) (not I) (not N))
     (or (= O 0) (not I) (not N))
     (or (not C) (not I) (not N))
     (or (not P) (and M Q))
     (or (not M) (and I N))
     (= P true)
     (not (= (<= 101 J) A))
     (= 2 v_18))
      )
      (main_1 v_18 E F G H)
    )
  )
)
(assert
  (forall ( (A Bool) (B Bool) (C Bool) (D Int) (E Int) (F Int) (G Int) (H Int) (I Int) (J Int) (K Bool) (L Int) (M Int) (N Int) (O Int) (P Int) (Q Int) (R Int) (S Int) (T Bool) (U Bool) (v_21 Int) (v_22 Int) ) 
    (=>
      (and
        (main_1 v_21 G H I J)
        (and (= 1 v_21)
     (= S (+ 1 I))
     (= R (+ (- 1) H))
     (not (= (<= 101 J) A))
     (not (= (<= R G) B))
     (= C (and B A))
     (or (not U) (not K) (= M Q))
     (or (not U) (not K) (= D L))
     (or (not U) (not K) (= P M))
     (or (not U) (not K) (= O S))
     (or (not U) (not K) (= N R))
     (or (not U) (not K) (= L J))
     (or (not U) (not K) (= F O))
     (or (not U) (not K) (= E N))
     (or C (not U) (not K))
     (or (not T) (and U K))
     (= T true)
     (= Q (+ 1 G))
     (= 1 v_22))
      )
      (main_1 v_22 D E F P)
    )
  )
)
(assert
  (forall ( (A Bool) (B Bool) (C Bool) (D Int) (E Int) (F Int) (G Int) (H Int) (I Int) (J Bool) (K Bool) (L Int) (M Bool) (N Bool) (O Int) (P Int) (Q Int) (R Bool) (S Bool) (T Int) (U Bool) (v_21 Int) (v_22 Int) ) 
    (=>
      (and
        (main_1 v_21 F G H I)
        (and (= 1 v_21)
     (= O (+ 1 F))
     (= Q (+ 1 H))
     (not (= (<= 101 I) A))
     (not (= (<= P F) B))
     (= C (and B A))
     (or (= D T) (not J) (not S))
     (or (= T Q) (not J) (not S))
     (or (= L D) (not R) (not U))
     (or (= E L) (not R) (not U))
     (or (not C) (not J) (not S))
     (or (not K) (and R U))
     (or (not R) (and J S))
     (or (not M) (and N K))
     (= M true)
     (= P (+ (- 1) G))
     (= 2 v_22))
      )
      (main_1 v_22 F G H I)
    )
  )
)
(assert
  (forall ( (A Int) (B Int) (C Int) (D Int) (v_4 Int) ) 
    (=>
      (and
        (main_1 v_4 A B C D)
        (= 2 v_4)
      )
      false
    )
  )
)

(check-sat)
(exit)
